% Generated FlatZinc statistics:
%%%mzn-stat: paths=0
%%%mzn-stat: flatIntVars=49
%%%mzn-stat: flatIntConstraints=61
%%%mzn-stat: method="maximize"
%%%mzn-stat: flatTime=1.95646
%%%mzn-stat-end

=====UNKNOWN=====
%%%mzn-stat: nSolutions=0
%%%mzn-stat-end
